Set parameter Username
Academic license - for non-commercial use only - expires 2024-02-22
Warning: Gurobi version mismatch between Python 9.5.0 and C library 9.5.2
Set parameter TimeLimit to value 3600
Set parameter MIPGap to value 1e-06
Set parameter Threads to value 1
Gurobi Optimizer version 9.5.2 build v9.5.2rc0 (linux64)
Thread count: 4 physical cores, 4 logical processors, using up to 1 threads
Optimize a model with 4446 rows, 4342 columns and 18122 nonzeros
Model fingerprint: 0xed060740
Variable types: 4238 continuous, 104 integer (104 binary)
Coefficient statistics:
  Matrix range     [1e+00, 1e+02]
  Objective range  [8e-01, 2e+03]
  Bounds range     [1e+00, 1e+00]
  RHS range        [2e+01, 2e+02]
Presolve removed 129 rows and 76 columns
Presolve time: 0.03s
Presolved: 4317 rows, 4266 columns, 16719 nonzeros
Variable types: 4163 continuous, 103 integer (103 binary)
Found heuristic solution: objective 114400.00000

Root relaxation: objective 1.455499e+04, 3046 iterations, 0.10 seconds (0.11 work units)

    Nodes    |    Current Node    |     Objective Bounds      |     Work
 Expl Unexpl |  Obj  Depth IntInf | Incumbent    BestBd   Gap | It/Node Time

     0     0 14554.9853    0   52 114400.000 14554.9853  87.3%     -    0s
H    0     0                    25661.904186 14554.9853  43.3%     -    0s
H    0     0                    25289.517197 14554.9853  42.4%     -    0s
     0     0 14998.4186    0   53 25289.5172 14998.4186  40.7%     -    0s
     0     0 15004.2000    0   53 25289.5172 15004.2000  40.7%     -    0s
     0     0 15307.8227    0   57 25289.5172 15307.8227  39.5%     -    0s
     0     0 15312.2222    0   58 25289.5172 15312.2222  39.5%     -    0s
     0     0 15915.6932    0   47 25289.5172 15915.6932  37.1%     -    0s
     0     0 16168.9549    0   45 25289.5172 16168.9549  36.1%     -    0s
     0     0 16182.0530    0   46 25289.5172 16182.0530  36.0%     -    0s
     0     0 16611.3156    0   46 25289.5172 16611.3156  34.3%     -    0s
H    0     0                    21198.699718 16611.3156  21.6%     -    0s
H    0     0                    17144.000000 16611.3156  3.11%     -    0s
     0     0 16664.7707    0   45 17144.0000 16664.7707  2.80%     -    0s
     0     0 16696.7433    0   46 17144.0000 16696.7433  2.61%     -    0s
     0     0 16698.2567    0   46 17144.0000 16698.2567  2.60%     -    0s
     0     0 16776.7986    0   46 17144.0000 16776.7986  2.14%     -    0s
     0     0 16776.7986    0   53 17144.0000 16776.7986  2.14%     -    0s
     0     0 16776.7986    0   49 17144.0000 16776.7986  2.14%     -    0s
     0     0 16776.7986    0   47 17144.0000 16776.7986  2.14%     -    0s
     0     0 16776.7986    0   42 17144.0000 16776.7986  2.14%     -    0s
     0     0 16776.7986    0   39 17144.0000 16776.7986  2.14%     -    0s
     0     0 16837.0971    0   44 17144.0000 16837.0971  1.79%     -    0s
     0     0 16839.8429    0   44 17144.0000 16839.8429  1.77%     -    0s
     0     0 16839.8865    0   44 17144.0000 16839.8865  1.77%     -    0s
     0     0 16885.6233    0   43 17144.0000 16885.6233  1.51%     -    0s
     0     0 16888.7782    0   43 17144.0000 16888.7782  1.49%     -    0s
     0     0 16888.8746    0   43 17144.0000 16888.8746  1.49%     -    0s
     0     0 16915.2887    0   44 17144.0000 16915.2887  1.33%     -    0s
     0     0 16916.5427    0   45 17144.0000 16916.5427  1.33%     -    0s
     0     0 16942.5677    0   41 17144.0000 16942.5677  1.17%     -    0s
     0     0 16942.5677    0   41 17144.0000 16942.5677  1.17%     -    0s
     0     0 16955.9352    0   43 17144.0000 16955.9352  1.10%     -    0s
     0     0 16959.0624    0   44 17144.0000 16959.0624  1.08%     -    0s
     0     0 16961.0030    0   44 17144.0000 16961.0030  1.07%     -    0s
     0     0 16968.7638    0   44 17144.0000 16968.7638  1.02%     -    1s
     0     0 16968.7638    0   44 17144.0000 16968.7638  1.02%     -    1s
     0     0 16968.7638    0   54 17144.0000 16968.7638  1.02%     -    1s
     0     0 16968.7638    0   45 17144.0000 16968.7638  1.02%     -    1s
     0     0 16968.7638    0   45 17144.0000 16968.7638  1.02%     -    1s
     0     0 16968.7638    0   42 17144.0000 16968.7638  1.02%     -    1s
     0     0 16968.7638    0   43 17144.0000 16968.7638  1.02%     -    1s
     0     0 16968.7638    0   44 17144.0000 16968.7638  1.02%     -    1s
     0     0 16968.7638    0   44 17144.0000 16968.7638  1.02%     -    1s
     0     0 16976.4883    0   40 17144.0000 16976.4883  0.98%     -    1s
     0     0 16979.4449    0   45 17144.0000 16979.4449  0.96%     -    1s
     0     0 16980.6644    0   46 17144.0000 16980.6644  0.95%     -    1s
     0     0 16984.1488    0   46 17144.0000 16984.1488  0.93%     -    1s
     0     0 16985.1138    0   45 17144.0000 16985.1138  0.93%     -    1s
     0     0 16985.2307    0   44 17144.0000 16985.2307  0.93%     -    1s
     0     0 16985.2307    0   44 17144.0000 16985.2307  0.93%     -    1s
     0     0 16985.2307    0   51 17144.0000 16985.2307  0.93%     -    1s
     0     0 16985.2307    0   44 17144.0000 16985.2307  0.93%     -    1s
     0     0 16985.2307    0   45 17144.0000 16985.2307  0.93%     -    1s
     0     0 16989.5855    0   44 17144.0000 16989.5855  0.90%     -    1s
     0     0 16990.6696    0   44 17144.0000 16990.6696  0.89%     -    1s
     0     0 16997.6491    0   43 17144.0000 16997.6491  0.85%     -    1s
     0     0 16997.9159    0   44 17144.0000 16997.9159  0.85%     -    1s
     0     0 17006.8941    0   42 17144.0000 17006.8941  0.80%     -    1s
     0     0 17007.4642    0   44 17144.0000 17007.4642  0.80%     -    1s
     0     0 17013.1006    0   45 17144.0000 17013.1006  0.76%     -    1s
     0     0 17013.1006    0   45 17144.0000 17013.1006  0.76%     -    1s
     0     2 17013.7239    0   45 17144.0000 17013.7239  0.76%     -    1s
*   15    13              14    17115.000000 17035.3942  0.47%   6.1    1s

Cutting planes:
  Lift-and-project: 11
  Implied bound: 2
  MIR: 79
  Flow cover: 20
  RLT: 1
  Relax-and-lift: 2

Explored 269 nodes (10760 simplex iterations) in 1.87 seconds (1.46 work units)
Thread count was 1 (of 4 available processors)

Solution count 8: 17115 17144 20688.4 ... 114400

Optimal solution found (tolerance 1.00e-06)
Best objective 1.711500000000e+04, best bound 1.711500000000e+04, gap 0.0000%
Obj: 17115
